p edge 40 200
e 1 9
e 1 21
e 1 26
e 1 26
e 1 27
e 2 5
e 2 17
e 2 19
e 2 25
e 2 33
e 3 2
e 3 16
e 3 20
e 3 25
e 3 34
e 4 2
e 4 16
e 4 23
e 4 36
e 4 39
e 5 6
e 5 8
e 5 18
e 5 19
e 5 34
e 6 15
e 6 15
e 6 17
e 6 29
e 6 39
e 7 2
e 7 11
e 7 15
e 7 36
e 7 39
e 8 9
e 8 15
e 8 29
e 8 29
e 8 33
e 9 2
e 9 3
e 9 3
e 9 28
e 9 33
e 10 9
e 10 25
e 10 30
e 10 38
e 10 40
e 11 6
e 11 18
e 11 25
e 11 27
e 11 37
e 12 2
e 12 8
e 12 32
e 12 36
e 12 38
e 13 3
e 13 14
e 13 24
e 13 29
e 13 31
e 14 3
e 14 4
e 14 11
e 14 12
e 14 16
e 15 3
e 15 12
e 15 14
e 15 36
e 15 37
e 16 25
e 16 27
e 16 27
e 16 27
e 16 38
e 17 7
e 17 21
e 17 32
e 17 34
e 17 38
e 18 27
e 18 27
e 18 29
e 18 34
e 18 39
e 19 4
e 19 6
e 19 26
e 19 27
e 19 37
e 20 9
e 20 19
e 20 19
e 20 30
e 20 34
e 21 17
e 21 22
e 21 28
e 21 34
e 21 35
e 22 3
e 22 8
e 22 21
e 22 24
e 22 24
e 23 4
e 23 12
e 23 15
e 23 22
e 23 33
e 24 21
e 24 27
e 24 28
e 24 30
e 24 33
e 25 4
e 25 9
e 25 15
e 25 31
e 25 39
e 26 12
e 26 19
e 26 22
e 26 25
e 26 31
e 27 3
e 27 6
e 27 14
e 27 16
e 27 28
e 28 4
e 28 10
e 28 16
e 28 29
e 28 35
e 29 14
e 29 26
e 29 32
e 29 36
e 29 39
e 30 8
e 30 19
e 30 25
e 30 29
e 30 38
e 31 3
e 31 9
e 31 9
e 31 12
e 31 33
e 32 11
e 32 13
e 32 16
e 32 28
e 32 29
e 33 4
e 33 8
e 33 9
e 33 22
e 33 24
e 34 4
e 34 8
e 34 17
e 34 25
e 34 30
e 35 6
e 35 8
e 35 9
e 35 16
e 35 36
e 36 24
e 36 32
e 36 32
e 36 34
e 36 35
e 37 8
e 37 25
e 37 27
e 37 34
e 37 36
e 38 11
e 38 20
e 38 29
e 38 31
e 38 40
e 39 3
e 39 7
e 39 14
e 39 18
e 39 29
e 40 1
e 40 3
e 40 11
e 40 17
e 40 32
